SLURM_JOB_ID: 55294027
SLURM_JOB_USER: vsc34888
SLURM_JOB_ACCOUNT: lp_elect_gen_modeling
SLURM_JOB_NAME: 9n_full_MILP_DC
SLURM_CLUSTER_NAME: genius
SLURM_JOB_PARTITION: batch
SLURM_NNODES: 1
SLURM_NODELIST: r22i27n16
SLURM_JOB_CPUS_PER_NODE: 36
Date: Wed Oct 11 14:22:23 CEST 2023
Walltime: 01-00:00:00
========================================================================
Activation OK
Starting runs
/lustre1/scratch/348/vsc34888/JointResearch/05.Models/06.Benchmarking/A.The_full_year_MILP/oSN_Main_DCOPF.py:617: FutureWarning: The default dtype for empty Series will be 'object' instead of 'float64' in a future version. Specify a dtype explicitly to silence this warning.
  pLinearOperCost.update (pd.Series([0 for gg in model.gg if pLinearOperCost [gg] < pEpsilon], index=[gg for gg in model.gg if pLinearOperCost [gg] < pEpsilon]))
/lustre1/scratch/348/vsc34888/JointResearch/05.Models/06.Benchmarking/A.The_full_year_MILP/oSN_Main_DCOPF.py:618: FutureWarning: The default dtype for empty Series will be 'object' instead of 'float64' in a future version. Specify a dtype explicitly to silence this warning.
  pLinearVarCost.update  (pd.Series([0 for gg in model.gg if pLinearVarCost  [gg] < pEpsilon], index=[gg for gg in model.gg if pLinearVarCost  [gg] < pEpsilon]))

 #### Academic research license - for non-commercial use only #### 

9n
/lustre1/scratch/348/vsc34888/JointResearch/05.Models/06.Benchmarking/A.The_full_year_MILP
gurobi
['oSN_Main_DCOPF.py', '--case', '9n']
Namespace(case='9n', dir='/lustre1/scratch/348/vsc34888/JointResearch/05.Models/06.Benchmarking/A.The_full_year_MILP', solver='gurobi')
Namespace(case='9n', dir='/lustre1/scratch/348/vsc34888/JointResearch/05.Models/06.Benchmarking/A.The_full_year_MILP', solver='gurobi')
Reading    input data                 ...  0 s
Setting up input data                 ...  7 s
Generating objective function         ...  6 s
Generating operation & investment     ...  0 s
Generating balance                    ...  11 s
Generating storage operation          ...  0 s
Generating generation commitment      ...  9 s
Generating generation capacity        ...  1 s
Generating network    capacity        ...  14 s
Generating network    constraints     ...  37 s
Econometric analysis  constraints     ...  0 s
Set parameter Username
Set parameter TokenServer to value "SET-S-ME-LM3.luna.kuleuven.be"
Read LP format model from file /tmp/tmpuzi0tmin.pyomo.lp
Reading time = 6.62 seconds
x1: 2367459 rows, 1236487 columns, 7225306 nonzeros
Set parameter QCPDual to value 1
Set parameter LogFile to value "/lustre1/scratch/348/vsc34888/JointResearch/05.Models/06.Benchmarking/A.The_full_year_MILP/9n/openStarNet_9n.log"
Set parameter Method to value 2
Set parameter MIPFocus to value 1
Set parameter Presolve to value 2
Set parameter RINS to value 100
Set parameter MIPGap to value 0.01
Set parameter Threads to value 36
Set parameter TimeLimit to value 604800
Set parameter IterationLimit to value 760000000
Gurobi Optimizer version 9.5.0 build v9.5.0rc5 (linux64)
Thread count: 36 physical cores, 36 logical processors, using up to 36 threads
Optimize a model with 2367459 rows, 1236487 columns and 7225306 nonzeros
Model fingerprint: 0xafe9566a
Variable types: 1236451 continuous, 36 integer (36 binary)
Coefficient statistics:
  Matrix range     [1e-04, 2e+03]
  Objective range  [1e+00, 1e+00]
  Bounds range     [4e-04, 2e+00]
  RHS range        [4e-04, 1e+00]
Presolve removed 821187 rows and 401860 columns (presolve time = 5s) ...
Presolve removed 821187 rows and 401860 columns (presolve time = 10s) ...
Presolve removed 821187 rows and 401860 columns (presolve time = 15s) ...
Presolve removed 821187 rows and 401860 columns
Presolve time: 16.07s
Presolved: 1546272 rows, 834627 columns, 5473407 nonzeros
Variable types: 834591 continuous, 36 integer (36 binary)
Root relaxation presolved: 1546272 rows, 834627 columns, 5473407 nonzeros

Root barrier log...

Ordering time: 0.51s

Barrier statistics:
 Dense cols : 36
 AA' NZ     : 2.081e+07
 Factor NZ  : 4.702e+07 (roughly 1.3 GB of memory)
 Factor Ops : 2.386e+09 (less than 1 second per iteration)
 Threads    : 35

                  Objective                Residual
Iter       Primal          Dual         Primal    Dual     Compl     Time
   0   3.92215575e+05 -1.99808944e+07  6.62e+00 5.96e-01  2.05e+01    33s
   1   6.05493976e+04 -5.88934812e+06  7.75e-01 1.03e-08  2.74e+00    34s
   2   1.34101516e+04 -9.30063324e+05  9.43e-03 2.83e-09  3.14e-01    35s
   3   3.19655330e+03 -2.20148629e+04  1.05e-05 6.93e-11  8.32e-03    36s
   4   9.14947752e+02 -3.52861701e+03  6.50e-09 1.14e-11  1.47e-03    37s
   5   6.30187843e+02 -1.63900864e+03  2.96e-09 4.87e-12  7.48e-04    38s
   6   4.41657096e+02 -9.67189689e+02  1.64e-09 3.10e-12  4.65e-04    39s
   7   3.00148592e+02 -5.09644363e+02  8.46e-10 1.50e-12  2.67e-04    39s
   8   1.67455167e+02 -1.94713935e+02  2.52e-10 1.03e-12  1.19e-04    41s
   9   1.44598981e+02 -4.77788720e+01  1.77e-10 4.55e-13  6.35e-05    41s
  10   1.35974879e+02 -2.30924797e+01  1.51e-10 6.82e-13  5.25e-05    42s
  11   1.15526645e+02  3.98546784e+00  8.68e-11 6.47e-13  3.68e-05    44s
  12   1.03012526e+02  2.11038679e+01  5.23e-11 4.41e-13  2.70e-05    45s
  13   9.84211079e+01  3.87187067e+01  4.06e-11 7.96e-13  1.97e-05    46s
  14   9.64751418e+01  4.07349783e+01  3.22e-11 5.90e-13  1.84e-05    47s
  15   9.56153496e+01  4.33557606e+01  3.00e-11 3.84e-13  1.72e-05    48s
  16   9.39818310e+01  4.67913124e+01  7.56e-11 4.41e-13  1.56e-05    49s
  17   9.20921644e+01  5.22424651e+01  6.13e-11 5.19e-13  1.31e-05    51s
  18   9.10441559e+01  5.47579539e+01  5.20e-11 7.18e-13  1.20e-05    52s
  19   9.02087382e+01  5.75408561e+01  4.47e-11 4.33e-13  1.08e-05    53s
  20   8.98117358e+01  6.25553942e+01  4.09e-11 7.60e-13  8.99e-06    54s
  21   8.89160066e+01  6.43971386e+01  3.31e-11 4.05e-13  8.09e-06    55s
  22   8.83501091e+01  6.57458390e+01  2.82e-11 4.33e-13  7.46e-06    57s
  23   8.79264570e+01  6.93517940e+01  3.55e-11 9.09e-13  6.13e-06    58s
  24   8.75777324e+01  7.17598648e+01  3.77e-11 7.60e-13  5.22e-06    59s
  25   8.71479128e+01  7.27735802e+01  2.50e-11 5.76e-13  4.74e-06    60s
  26   8.68809503e+01  7.35063100e+01  6.86e-11 3.62e-13  4.41e-06    61s
  27   8.66991129e+01  7.43710328e+01  5.07e-11 5.40e-13  4.07e-06    62s
  28   8.65851091e+01  7.48133526e+01  4.57e-11 5.47e-13  3.88e-06    64s
  29   8.64664867e+01  7.54992061e+01  4.43e-11 4.33e-13  3.62e-06    65s
  30   8.61993543e+01  7.68905641e+01  4.58e-11 5.76e-13  3.07e-06    66s
  31   8.60223962e+01  7.76863948e+01  1.08e-10 4.01e-13  2.75e-06    67s
  32   8.59220898e+01  7.81696769e+01  1.19e-10 4.62e-13  2.56e-06    69s
  33   8.58067710e+01  7.89291810e+01  1.18e-10 5.68e-13  2.27e-06    70s
  34   8.57207047e+01  7.92484062e+01  1.08e-10 6.75e-13  2.13e-06    71s
  35   8.56384090e+01  7.96220014e+01  1.30e-10 5.12e-13  1.98e-06    72s
  36   8.55720569e+01  8.00399278e+01  1.21e-10 4.33e-13  1.82e-06    73s
  37   8.54831728e+01  8.04453056e+01  9.79e-11 5.58e-13  1.66e-06    74s
  38   8.54488878e+01  8.08477687e+01  9.49e-11 7.18e-13  1.52e-06    76s
  39   8.54125016e+01  8.10482823e+01  8.47e-11 5.26e-13  1.44e-06    77s
  40   8.53506728e+01  8.14722638e+01  6.33e-11 6.82e-13  1.28e-06    78s
  41   8.53382723e+01  8.15872251e+01  9.06e-11 1.05e-12  1.24e-06    79s
  42   8.52927153e+01  8.21483833e+01  1.13e-10 9.45e-13  1.04e-06    80s
  43   8.52516166e+01  8.24714609e+01  1.00e-10 4.48e-13  9.17e-07    81s
  44   8.52024788e+01  8.26085144e+01  1.30e-10 4.48e-13  8.56e-07    82s
  45   8.51771063e+01  8.33221719e+01  1.22e-10 7.18e-13  6.12e-07    83s
  46   8.51340606e+01  8.34477831e+01  9.91e-11 9.20e-13  5.56e-07    85s
  47   8.51298630e+01  8.34994312e+01  1.22e-09 1.67e-12  5.38e-07    86s
  48   8.51078527e+01  8.39798158e+01  1.13e-08 1.79e-12  3.72e-07    87s
  49   8.50583828e+01  8.42291488e+01  8.41e-09 4.79e-12  2.74e-07    88s
  50   8.50445887e+01  8.42577267e+01  8.22e-09 4.77e-12  2.60e-07    90s
  51   8.50340507e+01  8.43536409e+01  7.94e-09 3.44e-12  2.24e-07    91s
  52   8.50222407e+01  8.44725131e+01  7.65e-09 3.67e-12  1.81e-07    93s
  53   8.50118712e+01  8.45439363e+01  7.26e-09 2.56e-12  1.54e-07    94s
  54   8.49921899e+01  8.46586792e+01  6.28e-09 1.61e-12  1.10e-07    96s
  55   8.49909574e+01  8.46642754e+01  6.12e-09 2.33e-12  1.08e-07    97s
  56   8.49880993e+01  8.46767941e+01  5.74e-09 2.48e-12  1.03e-07    98s
  57   8.49806187e+01  8.47773665e+01  4.59e-09 1.17e-11  6.70e-08   100s
  58   8.49750533e+01  8.47873535e+01  3.92e-09 1.07e-11  6.19e-08   101s
  59   8.49691121e+01  8.48405419e+01  3.31e-09 7.08e-12  4.24e-08   103s
  60   8.49545553e+01  8.48634802e+01  1.51e-09 5.88e-12  3.00e-08   105s
  61   8.49525816e+01  8.48894136e+01  1.12e-09 3.93e-12  2.08e-08   106s
  62   8.49493077e+01  8.49288716e+01  7.68e-10 4.14e-12  6.74e-09   108s
  63   8.49487852e+01  8.49300071e+01  7.11e-10 4.21e-12  6.19e-09   110s
  64   8.49471751e+01  8.49315785e+01  5.35e-10 3.06e-12  5.14e-09   111s
  65   8.49468545e+01  8.49394765e+01  4.82e-10 6.76e-11  2.43e-09   112s
  66   8.49431452e+01  8.49420458e+01  8.52e-11 2.61e-12  3.63e-10   113s
  67   8.49423689e+01  8.49422732e+01  3.10e-10 6.96e-13  3.16e-11   114s
  68   8.49422918e+01  8.49422917e+01  8.82e-11 2.17e-11  9.87e-15   115s

Barrier solved model in 68 iterations and 114.84 seconds (81.27 work units)
Optimal objective 8.49422918e+01


Root crossover log...

  364167 DPushes remaining with DInf 0.0000000e+00               116s
       0 DPushes remaining with DInf 0.0000000e+00               117s

   61583 PPushes remaining with PInf 0.0000000e+00               117s
       0 PPushes remaining with PInf 0.0000000e+00               121s

  Push phase complete: Pinf 0.0000000e+00, Dinf 1.9568421e-12    121s


Root simplex log...

Iteration    Objective       Primal Inf.    Dual Inf.      Time
   70035    8.4942292e+01   0.000000e+00   0.000000e+00    122s
   70035    8.4942292e+01   0.000000e+00   0.000000e+00    123s

Root relaxation: objective 8.494229e+01, 70035 iterations, 98.53 seconds (72.92 work units)

    Nodes    |    Current Node    |     Objective Bounds      |     Work
 Expl Unexpl |  Obj  Depth IntInf | Incumbent    BestBd   Gap | It/Node Time

     0     0   84.94229    0    6          -   84.94229      -     -  124s
H    0     0                     915.9985689   84.94229  90.7%     -  135s
     0     0   92.40894    0    1  915.99857   92.40894  89.9%     -  374s
H    0     0                      94.6526624   92.40894  2.37%     -  386s
     0     0   92.65269    0    1   94.65266   92.65269  2.11%     -  413s
     0     0   92.65269    0    1   94.65266   92.65269  2.11%     -  418s
     0     0   93.10136    0    3   94.65266   93.10136  1.64%     -  583s
     0     0   93.10136    0    3   94.65266   93.10136  1.64%     -  602s
     0     0   93.10136    0    1   94.65266   93.10136  1.64%     -  640s
H    0     0                      93.1993808   93.10136  0.11%     -  645s

Cutting planes:
  Gomory: 1
  MIR: 7795
  Relax-and-lift: 31

Explored 1 nodes (298130 simplex iterations) in 645.67 seconds (947.23 work units)
Thread count was 36 (of 36 available processors)

Solution count 4: 93.1994 94.6527 915.999 927.024 

Optimal solution found (tolerance 1.00e-02)
Best objective 9.319938075761e+01, best bound 9.310136018632e+01, gap 0.1052%
Termination condition:  optimal
# ==========================================================
# = Solver Results                                         =
# ==========================================================
# ----------------------------------------------------------
#   Problem Information
# ----------------------------------------------------------
Problem: 
- Name: x1
  Lower bound: 93.10136018632416
  Upper bound: 93.19938075761188
  Number of objectives: 1
  Number of constraints: 2367459
  Number of variables: 1236487
  Number of binary variables: 36
  Number of integer variables: 36
  Number of continuous variables: 1236451
  Number of nonzeros: 7225306
  Sense: minimize
# ----------------------------------------------------------
#   Solver Information
# ----------------------------------------------------------
Solver: 
- Status: ok
  Return code: 0
  Message: Model was solved to optimality (subject to tolerances), and an optimal solution is available.
  Termination condition: optimal
  Termination message: Model was solved to optimality (subject to tolerances), and an optimal solution is available.
  Wall time: 645.7064080238342
  Error rc: 0
  Time: 659.7306694984436
# ----------------------------------------------------------
#   Solution Information
# ----------------------------------------------------------
Solution: 
- number of solutions: 0
  number of solutions displayed: 0
# ============================================================================= #
# ============================================================================= #
fixing: vNetworkInvest[2030,Node_7,Node_8,cac2]
fixing: vNetworkInvest[2030,Node_4,Node_5,cac1]
fixing: vNetworkInvest[2030,Node_1,Node_6,cac2]
fixing: vNetworkInvest[2030,Node_6,Node_8,cac2]
fixing: vNetworkInvest[2030,Node_3,Node_4,cac2]
fixing: vNetworkInvest[2030,Node_4,Node_9,cac2]
fixing: vNetworkInvest[2030,Node_4,Node_6,cac2]
fixing: vNetworkInvest[2030,Node_6,Node_7,cac2]
fixing: vNetworkInvest[2030,Node_2,Node_3,cac3]
fixing: vNetworkInvest[2030,Node_8,Node_9,cac2]
fixing: vNetworkInvest[2030,Node_2,Node_6,cac1]
fixing: vNetworkInvest[2030,Node_7,Node_8,cac3]
fixing: vNetworkInvest[2030,Node_3,Node_6,cac2]
fixing: vNetworkInvest[2030,Node_1,Node_6,cac3]
fixing: vNetworkInvest[2030,Node_4,Node_5,cac2]
fixing: vNetworkInvest[2030,Node_6,Node_8,cac3]
fixing: vNetworkInvest[2030,Node_3,Node_4,cac3]
fixing: vNetworkInvest[2030,Node_4,Node_9,cac3]
fixing: vNetworkInvest[2030,Node_6,Node_7,cac3]
fixing: vNetworkInvest[2030,Node_4,Node_6,cac3]
fixing: vNetworkInvest[2030,Node_8,Node_9,cac3]
fixing: vNetworkInvest[2030,Node_3,Node_6,cac3]
fixing: vNetworkInvest[2030,Node_2,Node_3,cac1]
fixing: vNetworkInvest[2030,Node_2,Node_6,cac2]
fixing: vNetworkInvest[2030,Node_2,Node_3,cac2]
fixing: vNetworkInvest[2030,Node_4,Node_5,cac3]
fixing: vNetworkInvest[2030,Node_7,Node_8,cac1]
fixing: vNetworkInvest[2030,Node_3,Node_4,cac1]
fixing: vNetworkInvest[2030,Node_4,Node_9,cac1]
fixing: vNetworkInvest[2030,Node_1,Node_6,cac1]
fixing: vNetworkInvest[2030,Node_6,Node_8,cac1]
fixing: vNetworkInvest[2030,Node_4,Node_6,cac1]
fixing: vNetworkInvest[2030,Node_6,Node_7,cac1]
fixing: vNetworkInvest[2030,Node_2,Node_6,cac3]
fixing: vNetworkInvest[2030,Node_3,Node_6,cac1]
fixing: vNetworkInvest[2030,Node_8,Node_9,cac1]
Number of fixed variables:  36
# ============================================================================= #
# ============================================================================= #
WARNING: Implicitly replacing the Component attribute dual (type=<class
'pyomo.core.base.suffix.Suffix'>) on block 'openStarNet - Open Version of the
StartNetLite Model (Long Term Transmission Expansion Planning) - Version 1.0.0
- January 16, 2023' with a new Component (type=<class
'pyomo.core.base.suffix.Suffix'>). This is usually indicative of a modelling
error. To avoid this warning, use block.del_component() and
block.add_component().
WARNING: Implicitly replacing the Component attribute rc (type=<class
'pyomo.core.base.suffix.Suffix'>) on block 'openStarNet - Open Version of the
StartNetLite Model (Long Term Transmission Expansion Planning) - Version 1.0.0
- January 16, 2023' with a new Component (type=<class
'pyomo.core.base.suffix.Suffix'>). This is usually indicative of a modelling
error. To avoid this warning, use block.del_component() and
block.add_component().
# ==========================================================
# = Solver Results                                         =
# ==========================================================
# ----------------------------------------------------------
#   Problem Information
# ----------------------------------------------------------
Problem: 
- Name: x1
  Lower bound: 93.19938075761166
  Upper bound: 93.19938075761166
  Number of objectives: 1
  Number of constraints: 2367459
  Number of variables: 1236451
  Number of binary variables: 0
  Number of integer variables: 0
  Number of continuous variables: 1236451
  Number of nonzeros: 5967286
  Sense: minimize
# ----------------------------------------------------------
#   Solver Information
# ----------------------------------------------------------
Solver: 
- Status: ok
  Return code: 0
  Message: Model was solved to optimality (subject to tolerances), and an optimal solution is available.
  Termination condition: optimal
  Termination message: Model was solved to optimality (subject to tolerances), and an optimal solution is available.
  Wall time: 13.011929988861084
  Error rc: 0
  Time: 33.63874912261963
# ----------------------------------------------------------
#   Solution Information
# ----------------------------------------------------------
Solution: 
- number of solutions: 0
  number of solutions displayed: 0
Solving                               ...  820 s
Objective function value                   93.2 M€
Objective function value                   93.19938075761166
Writing         cost summary results  ...  0 s
Writing           investment results  ...  0 s
Writing       energy balance results  ...  28 s
Writing    network operation results  ...  4 s
Writing generation operation results  ...  6 s
Writing        ESS operation results  ...  0 s
Writing             economic results  ...  1 s

 #### Academic research license - for non-commercial use only #### 

Elapsed time: 959 seconds
